p cnf 651 2203
1 19 7 25 13 31 0
37 55 43 61 49 67 0
73 91 79 97 85 103 0
109 127 115 133 121 139 0
145 163 151 169 157 175 0
2 20 8 26 14 32 0
38 56 44 62 50 68 0
74 92 80 98 86 104 0
110 128 116 134 122 140 0
146 164 152 170 158 176 0
3 21 9 27 15 33 0
39 57 45 63 51 69 0
75 93 81 99 87 105 0
111 129 117 135 123 141 0
147 165 153 171 159 177 0
4 22 10 28 16 34 0
40 58 46 64 52 70 0
76 94 82 100 88 106 0
112 130 118 136 124 142 0
148 166 154 172 160 178 0
5 23 11 29 17 35 0
41 59 47 65 53 71 0
77 95 83 101 89 107 0
113 131 119 137 125 143 0
149 167 155 173 161 179 0
6 24 12 30 18 36 0
42 60 48 66 54 72 0
78 96 84 102 90 108 0
114 132 120 138 126 144 0
150 168 156 174 162 180 0
-1 -19 -111 0
-1 -25 -111 0
-1 -31 -111 0
-7 -19 -111 0
-7 -25 -111 0
-7 -31 -111 0
-13 -19 -111 0
-13 -25 -111 0
-13 -31 -111 0
-37 -55 -121 0
-37 -61 -121 0
-37 -67 -121 0
-43 -55 -121 0
-43 -61 -121 0
-43 -67 -121 0
-49 -55 -121 0
-49 -61 -121 0
-49 -67 -121 0
-73 -91 -131 0
-73 -97 -131 0
-73 -103 -131 0
-79 -91 -131 0
-79 -97 -131 0
-79 -103 -131 0
-85 -91 -131 0
-85 -97 -131 0
-85 -103 -131 0
-109 -127 -141 0
-109 -133 -141 0
-109 -139 -141 0
-115 -127 -141 0
-115 -133 -141 0
-115 -139 -141 0
-121 -127 -141 0
-121 -133 -141 0
-121 -139 -141 0
-145 -163 -151 0
-145 -169 -151 0
-145 -175 -151 0
-151 -163 -151 0
-151 -169 -151 0
-151 -175 -151 0
-157 -163 -151 0
-157 -169 -151 0
-157 -175 -151 0
-2 -20 -211 0
-2 -26 -211 0
-2 -32 -211 0
-8 -20 -211 0
-8 -26 -211 0
-8 -32 -211 0
-14 -20 -211 0
-14 -26 -211 0
-14 -32 -211 0
-38 -56 -221 0
-38 -62 -221 0
-38 -68 -221 0
-44 -56 -221 0
-44 -62 -221 0
-44 -68 -221 0
-50 -56 -221 0
-50 -62 -221 0
-50 -68 -221 0
-74 -92 -231 0
-74 -98 -231 0
-74 -104 -231 0
-80 -92 -231 0
-80 -98 -231 0
-80 -104 -231 0
-86 -92 -231 0
-86 -98 -231 0
-86 -104 -231 0
-110 -128 -241 0
-110 -134 -241 0
-110 -140 -241 0
-116 -128 -241 0
-116 -134 -241 0
-116 -140 -241 0
-122 -128 -241 0
-122 -134 -241 0
-122 -140 -241 0
-146 -164 -251 0
-146 -170 -251 0
-146 -176 -251 0
-152 -164 -251 0
-152 -170 -251 0
-152 -176 -251 0
-158 -164 -251 0
-158 -170 -251 0
-158 -176 -251 0
-3 -21 -311 0
-3 -27 -311 0
-3 -33 -311 0
-9 -21 -311 0
-9 -27 -311 0
-9 -33 -311 0
-15 -21 -311 0
-15 -27 -311 0
-15 -33 -311 0
-39 -57 -321 0
-39 -63 -321 0
-39 -69 -321 0
-45 -57 -321 0
-45 -63 -321 0
-45 -69 -321 0
-51 -57 -321 0
-51 -63 -321 0
-51 -69 -321 0
-75 -93 -331 0
-75 -99 -331 0
-75 -105 -331 0
-81 -93 -331 0
-81 -99 -331 0
-81 -105 -331 0
-87 -93 -331 0
-87 -99 -331 0
-87 -105 -331 0
-111 -129 -341 0
-111 -135 -341 0
-111 -141 -341 0
-117 -129 -341 0
-117 -135 -341 0
-117 -141 -341 0
-123 -129 -341 0
-123 -135 -341 0
-123 -141 -341 0
-147 -165 -351 0
-147 -171 -351 0
-147 -177 -351 0
-153 -165 -351 0
-153 -171 -351 0
-153 -177 -351 0
-159 -165 -351 0
-159 -171 -351 0
-159 -177 -351 0
-4 -22 -411 0
-4 -28 -411 0
-4 -34 -411 0
-10 -22 -411 0
-10 -28 -411 0
-10 -34 -411 0
-16 -22 -411 0
-16 -28 -411 0
-16 -34 -411 0
-40 -58 -421 0
-40 -64 -421 0
-40 -70 -421 0
-46 -58 -421 0
-46 -64 -421 0
-46 -70 -421 0
-52 -58 -421 0
-52 -64 -421 0
-52 -70 -421 0
-76 -94 -431 0
-76 -100 -431 0
-76 -106 -431 0
-82 -94 -431 0
-82 -100 -431 0
-82 -106 -431 0
-88 -94 -431 0
-88 -100 -431 0
-88 -106 -431 0
-112 -130 -441 0
-112 -136 -441 0
-112 -142 -441 0
-118 -130 -441 0
-118 -136 -441 0
-118 -142 -441 0
-124 -130 -441 0
-124 -136 -441 0
-124 -142 -441 0
-148 -166 -451 0
-148 -172 -451 0
-148 -178 -451 0
-154 -166 -451 0
-154 -172 -451 0
-154 -178 -451 0
-160 -166 -451 0
-160 -172 -451 0
-160 -178 -451 0
-5 -23 -511 0
-5 -29 -511 0
-5 -35 -511 0
-11 -23 -511 0
-11 -29 -511 0
-11 -35 -511 0
-17 -23 -511 0
-17 -29 -511 0
-17 -35 -511 0
-41 -59 -521 0
-41 -65 -521 0
-41 -71 -521 0
-47 -59 -521 0
-47 -65 -521 0
-47 -71 -521 0
-53 -59 -521 0
-53 -65 -521 0
-53 -71 -521 0
-77 -95 -531 0
-77 -101 -531 0
-77 -107 -531 0
-83 -95 -531 0
-83 -101 -531 0
-83 -107 -531 0
-89 -95 -531 0
-89 -101 -531 0
-89 -107 -531 0
-113 -131 -541 0
-113 -137 -541 0
-113 -143 -541 0
-119 -131 -541 0
-119 -137 -541 0
-119 -143 -541 0
-125 -131 -541 0
-125 -137 -541 0
-125 -143 -541 0
-149 -167 -551 0
-149 -173 -551 0
-149 -179 -551 0
-155 -167 -551 0
-155 -173 -551 0
-155 -179 -551 0
-161 -167 -551 0
-161 -173 -551 0
-161 -179 -551 0
-6 -24 -611 0
-6 -30 -611 0
-6 -36 -611 0
-12 -24 -611 0
-12 -30 -611 0
-12 -36 -611 0
-18 -24 -611 0
-18 -30 -611 0
-18 -36 -611 0
-42 -60 -621 0
-42 -66 -621 0
-42 -72 -621 0
-48 -60 -621 0
-48 -66 -621 0
-48 -72 -621 0
-54 -60 -621 0
-54 -66 -621 0
-54 -72 -621 0
-78 -96 -631 0
-78 -102 -631 0
-78 -108 -631 0
-84 -96 -631 0
-84 -102 -631 0
-84 -108 -631 0
-90 -96 -631 0
-90 -102 -631 0
-90 -108 -631 0
-114 -132 -641 0
-114 -138 -641 0
-114 -144 -641 0
-120 -132 -641 0
-120 -138 -641 0
-120 -144 -641 0
-126 -132 -641 0
-126 -138 -641 0
-126 -144 -641 0
-150 -168 -651 0
-150 -174 -651 0
-150 -180 -651 0
-156 -168 -651 0
-156 -174 -651 0
-156 -180 -651 0
-162 -168 -651 0
-162 -174 -651 0
-162 -180 -651 0
-111 -112 0
-112 -111 0
-1 -19 -111 0
-1 -25 -111 0
-1 -31 -111 0
-7 -19 -111 0
-7 -25 -111 0
-7 -31 -111 0
-13 -19 -111 0
-13 -25 -111 0
-13 -31 -111 0
-37 -55 -121 0
-37 -61 -121 0
-37 -67 -121 0
-43 -55 -121 0
-43 -61 -121 0
-43 -67 -121 0
-49 -55 -121 0
-49 -61 -121 0
-49 -67 -121 0
-73 -91 -131 0
-73 -97 -131 0
-73 -103 -131 0
-79 -91 -131 0
-79 -97 -131 0
-79 -103 -131 0
-85 -91 -131 0
-85 -97 -131 0
-85 -103 -131 0
-109 -127 -141 0
-109 -133 -141 0
-109 -139 -141 0
-115 -127 -141 0
-115 -133 -141 0
-115 -139 -141 0
-121 -127 -141 0
-121 -133 -141 0
-121 -139 -141 0
-145 -163 -151 0
-145 -169 -151 0
-145 -175 -151 0
-151 -163 -151 0
-151 -169 -151 0
-151 -175 -151 0
-157 -163 -151 0
-157 -169 -151 0
-157 -175 -151 0
-2 -20 -211 0
-2 -26 -211 0
-2 -32 -211 0
-8 -20 -211 0
-8 -26 -211 0
-8 -32 -211 0
-14 -20 -211 0
-14 -26 -211 0
-14 -32 -211 0
-38 -56 -221 0
-38 -62 -221 0
-38 -68 -221 0
-44 -56 -221 0
-44 -62 -221 0
-44 -68 -221 0
-50 -56 -221 0
-50 -62 -221 0
-50 -68 -221 0
-74 -92 -231 0
-74 -98 -231 0
-74 -104 -231 0
-80 -92 -231 0
-80 -98 -231 0
-80 -104 -231 0
-86 -92 -231 0
-86 -98 -231 0
-86 -104 -231 0
-110 -128 -241 0
-110 -134 -241 0
-110 -140 -241 0
-116 -128 -241 0
-116 -134 -241 0
-116 -140 -241 0
-122 -128 -241 0
-122 -134 -241 0
-122 -140 -241 0
-146 -164 -251 0
-146 -170 -251 0
-146 -176 -251 0
-152 -164 -251 0
-152 -170 -251 0
-152 -176 -251 0
-158 -164 -251 0
-158 -170 -251 0
-158 -176 -251 0
-3 -21 -311 0
-3 -27 -311 0
-3 -33 -311 0
-9 -21 -311 0
-9 -27 -311 0
-9 -33 -311 0
-15 -21 -311 0
-15 -27 -311 0
-15 -33 -311 0
-39 -57 -321 0
-39 -63 -321 0
-39 -69 -321 0
-45 -57 -321 0
-45 -63 -321 0
-45 -69 -321 0
-51 -57 -321 0
-51 -63 -321 0
-51 -69 -321 0
-75 -93 -331 0
-75 -99 -331 0
-75 -105 -331 0
-81 -93 -331 0
-81 -99 -331 0
-81 -105 -331 0
-87 -93 -331 0
-87 -99 -331 0
-87 -105 -331 0
-111 -129 -341 0
-111 -135 -341 0
-111 -141 -341 0
-117 -129 -341 0
-117 -135 -341 0
-117 -141 -341 0
-123 -129 -341 0
-123 -135 -341 0
-123 -141 -341 0
-147 -165 -351 0
-147 -171 -351 0
-147 -177 -351 0
-153 -165 -351 0
-153 -171 -351 0
-153 -177 -351 0
-159 -165 -351 0
-159 -171 -351 0
-159 -177 -351 0
-4 -22 -411 0
-4 -28 -411 0
-4 -34 -411 0
-10 -22 -411 0
-10 -28 -411 0
-10 -34 -411 0
-16 -22 -411 0
-16 -28 -411 0
-16 -34 -411 0
-40 -58 -421 0
-40 -64 -421 0
-40 -70 -421 0
-46 -58 -421 0
-46 -64 -421 0
-46 -70 -421 0
-52 -58 -421 0
-52 -64 -421 0
-52 -70 -421 0
-76 -94 -431 0
-76 -100 -431 0
-76 -106 -431 0
-82 -94 -431 0
-82 -100 -431 0
-82 -106 -431 0
-88 -94 -431 0
-88 -100 -431 0
-88 -106 -431 0
-112 -130 -441 0
-112 -136 -441 0
-112 -142 -441 0
-118 -130 -441 0
-118 -136 -441 0
-118 -142 -441 0
-124 -130 -441 0
-124 -136 -441 0
-124 -142 -441 0
-148 -166 -451 0
-148 -172 -451 0
-148 -178 -451 0
-154 -166 -451 0
-154 -172 -451 0
-154 -178 -451 0
-160 -166 -451 0
-160 -172 -451 0
-160 -178 -451 0
-5 -23 -511 0
-5 -29 -511 0
-5 -35 -511 0
-11 -23 -511 0
-11 -29 -511 0
-11 -35 -511 0
-17 -23 -511 0
-17 -29 -511 0
-17 -35 -511 0
-41 -59 -521 0
-41 -65 -521 0
-41 -71 -521 0
-47 -59 -521 0
-47 -65 -521 0
-47 -71 -521 0
-53 -59 -521 0
-53 -65 -521 0
-53 -71 -521 0
-77 -95 -531 0
-77 -101 -531 0
-77 -107 -531 0
-83 -95 -531 0
-83 -101 -531 0
-83 -107 -531 0
-89 -95 -531 0
-89 -101 -531 0
-89 -107 -531 0
-113 -131 -541 0
-113 -137 -541 0
-113 -143 -541 0
-119 -131 -541 0
-119 -137 -541 0
-119 -143 -541 0
-125 -131 -541 0
-125 -137 -541 0
-125 -143 -541 0
-149 -167 -551 0
-149 -173 -551 0
-149 -179 -551 0
-155 -167 -551 0
-155 -173 -551 0
-155 -179 -551 0
-161 -167 -551 0
-161 -173 -551 0
-161 -179 -551 0
-6 -24 -611 0
-6 -30 -611 0
-6 -36 -611 0
-12 -24 -611 0
-12 -30 -611 0
-12 -36 -611 0
-18 -24 -611 0
-18 -30 -611 0
-18 -36 -611 0
-42 -60 -621 0
-42 -66 -621 0
-42 -72 -621 0
-48 -60 -621 0
-48 -66 -621 0
-48 -72 -621 0
-54 -60 -621 0
-54 -66 -621 0
-54 -72 -621 0
-78 -96 -631 0
-78 -102 -631 0
-78 -108 -631 0
-84 -96 -631 0
-84 -102 -631 0
-84 -108 -631 0
-90 -96 -631 0
-90 -102 -631 0
-90 -108 -631 0
-114 -132 -641 0
-114 -138 -641 0
-114 -144 -641 0
-120 -132 -641 0
-120 -138 -641 0
-120 -144 -641 0
-126 -132 -641 0
-126 -138 -641 0
-126 -144 -641 0
-150 -168 -651 0
-150 -174 -651 0
-150 -180 -651 0
-156 -168 -651 0
-156 -174 -651 0
-156 -180 -651 0
-162 -168 -651 0
-162 -174 -651 0
-162 -180 -651 0
-111 -112 0
-112 -111 0
1 2 3 4 5 6 0
7 8 9 10 11 12 0
13 14 15 16 17 18 0
19 20 21 22 23 24 0
25 26 27 28 29 30 0
31 32 33 34 35 36 0
37 38 39 40 41 42 0
43 44 45 46 47 48 0
49 50 51 52 53 54 0
55 56 57 58 59 60 0
61 62 63 64 65 66 0
67 68 69 70 71 72 0
73 74 75 76 77 78 0
79 80 81 82 83 84 0
85 86 87 88 89 90 0
91 92 93 94 95 96 0
97 98 99 100 101 102 0
103 104 105 106 107 108 0
109 110 111 112 113 114 0
115 116 117 118 119 120 0
121 122 123 124 125 126 0
127 128 129 130 131 132 0
133 134 135 136 137 138 0
139 140 141 142 143 144 0
145 146 147 148 149 150 0
151 152 153 154 155 156 0
157 158 159 160 161 162 0
163 164 165 166 167 168 0
169 170 171 172 173 174 0
175 176 177 178 179 180 0
-1 -7 0
-1 -13 0
-2 -8 0
-2 -14 0
-3 -9 0
-3 -15 0
-4 -10 0
-4 -16 0
-5 -11 0
-5 -17 0
-6 -12 0
-6 -18 0
-7 -13 0
-8 -14 0
-9 -15 0
-10 -16 0
-11 -17 0
-12 -18 0
-19 -25 0
-19 -31 0
-20 -26 0
-20 -32 0
-21 -27 0
-21 -33 0
-22 -28 0
-22 -34 0
-23 -29 0
-23 -35 0
-24 -30 0
-24 -36 0
-25 -31 0
-26 -32 0
-27 -33 0
-28 -34 0
-29 -35 0
-30 -36 0
-37 -43 0
-37 -49 0
-38 -44 0
-38 -50 0
-39 -45 0
-39 -51 0
-40 -46 0
-40 -52 0
-41 -47 0
-41 -53 0
-42 -48 0
-42 -54 0
-43 -49 0
-44 -50 0
-45 -51 0
-46 -52 0
-47 -53 0
-48 -54 0
-55 -61 0
-55 -67 0
-56 -62 0
-56 -68 0
-57 -63 0
-57 -69 0
-58 -64 0
-58 -70 0
-59 -65 0
-59 -71 0
-60 -66 0
-60 -72 0
-61 -67 0
-62 -68 0
-63 -69 0
-64 -70 0
-65 -71 0
-66 -72 0
-73 -79 0
-73 -85 0
-74 -80 0
-74 -86 0
-75 -81 0
-75 -87 0
-76 -82 0
-76 -88 0
-77 -83 0
-77 -89 0
-78 -84 0
-78 -90 0
-79 -85 0
-80 -86 0
-81 -87 0
-82 -88 0
-83 -89 0
-84 -90 0
-91 -97 0
-91 -103 0
-92 -98 0
-92 -104 0
-93 -99 0
-93 -105 0
-94 -100 0
-94 -106 0
-95 -101 0
-95 -107 0
-96 -102 0
-96 -108 0
-97 -103 0
-98 -104 0
-99 -105 0
-100 -106 0
-101 -107 0
-102 -108 0
-109 -115 0
-109 -121 0
-110 -116 0
-110 -122 0
-111 -117 0
-111 -123 0
-112 -118 0
-112 -124 0
-113 -119 0
-113 -125 0
-114 -120 0
-114 -126 0
-115 -121 0
-116 -122 0
-117 -123 0
-118 -124 0
-119 -125 0
-120 -126 0
-127 -133 0
-127 -139 0
-128 -134 0
-128 -140 0
-129 -135 0
-129 -141 0
-130 -136 0
-130 -142 0
-131 -137 0
-131 -143 0
-132 -138 0
-132 -144 0
-133 -139 0
-134 -140 0
-135 -141 0
-136 -142 0
-137 -143 0
-138 -144 0
-145 -151 0
-145 -157 0
-146 -152 0
-146 -158 0
-147 -153 0
-147 -159 0
-148 -154 0
-148 -160 0
-149 -155 0
-149 -161 0
-150 -156 0
-150 -162 0
-151 -157 0
-152 -158 0
-153 -159 0
-154 -160 0
-155 -161 0
-156 -162 0
-163 -169 0
-163 -175 0
-164 -170 0
-164 -176 0
-165 -171 0
-165 -177 0
-166 -172 0
-166 -178 0
-167 -173 0
-167 -179 0
-168 -174 0
-168 -180 0
-169 -175 0
-170 -176 0
-171 -177 0
-172 -178 0
-173 -179 0
-174 -180 0
-181 1 7 13 0
-193 37 43 49 0
-205 73 79 85 0
-217 109 115 121 0
-229 145 151 157 0
-187 19 25 31 0
-199 55 61 67 0
-211 91 97 103 0
-223 127 133 139 0
-235 163 169 175 0
-182 2 8 14 0
-194 38 44 50 0
-206 74 80 86 0
-218 110 116 122 0
-230 146 152 158 0
-188 20 26 32 0
-200 56 62 68 0
-212 92 98 104 0
-224 128 134 140 0
-236 164 170 176 0
-183 3 9 15 0
-195 39 45 51 0
-207 75 81 87 0
-219 111 117 123 0
-231 147 153 159 0
-189 21 27 33 0
-201 57 63 69 0
-213 93 99 105 0
-225 129 135 141 0
-237 165 171 177 0
-184 4 10 16 0
-196 40 46 52 0
-208 76 82 88 0
-220 112 118 124 0
-232 148 154 160 0
-190 22 28 34 0
-202 58 64 70 0
-214 94 100 106 0
-226 130 136 142 0
-238 166 172 178 0
-185 5 11 17 0
-197 41 47 53 0
-209 77 83 89 0
-221 113 119 125 0
-233 149 155 161 0
-191 23 29 35 0
-203 59 65 71 0
-215 95 101 107 0
-227 131 137 143 0
-239 167 173 179 0
-186 6 12 18 0
-198 42 48 54 0
-210 78 84 90 0
-222 114 120 126 0
-234 150 156 162 0
-192 24 30 36 0
-204 60 66 72 0
-216 96 102 108 0
-228 132 138 144 0
-240 168 174 180 0
-181 -182 -193 -194 0
-181 -182 -205 -206 0
-181 -182 -217 -218 0
-181 -182 -229 -230 0
-181 -182 -199 -200 0
-181 -182 -211 -212 0
-181 -182 -223 -224 0
-181 -182 -235 -236 0
-181 -183 -193 -195 0
-181 -183 -205 -207 0
-181 -183 -217 -219 0
-181 -183 -229 -231 0
-181 -183 -199 -201 0
-181 -183 -211 -213 0
-181 -183 -223 -225 0
-181 -183 -235 -237 0
-181 -184 -193 -196 0
-181 -184 -205 -208 0
-181 -184 -217 -220 0
-181 -184 -229 -232 0
-181 -184 -199 -202 0
-181 -184 -211 -214 0
-181 -184 -223 -226 0
-181 -184 -235 -238 0
-181 -185 -193 -197 0
-181 -185 -205 -209 0
-181 -185 -217 -221 0
-181 -185 -229 -233 0
-181 -185 -199 -203 0
-181 -185 -211 -215 0
-181 -185 -223 -227 0
-181 -185 -235 -239 0
-181 -186 -193 -198 0
-181 -186 -205 -210 0
-181 -186 -217 -222 0
-181 -186 -229 -234 0
-181 -186 -199 -204 0
-181 -186 -211 -216 0
-181 -186 -223 -228 0
-181 -186 -235 -240 0
-182 -183 -194 -195 0
-182 -183 -206 -207 0
-182 -183 -218 -219 0
-182 -183 -230 -231 0
-182 -183 -200 -201 0
-182 -183 -212 -213 0
-182 -183 -224 -225 0
-182 -183 -236 -237 0
-182 -184 -194 -196 0
-182 -184 -206 -208 0
-182 -184 -218 -220 0
-182 -184 -230 -232 0
-182 -184 -200 -202 0
-182 -184 -212 -214 0
-182 -184 -224 -226 0
-182 -184 -236 -238 0
-182 -185 -194 -197 0
-182 -185 -206 -209 0
-182 -185 -218 -221 0
-182 -185 -230 -233 0
-182 -185 -200 -203 0
-182 -185 -212 -215 0
-182 -185 -224 -227 0
-182 -185 -236 -239 0
-182 -186 -194 -198 0
-182 -186 -206 -210 0
-182 -186 -218 -222 0
-182 -186 -230 -234 0
-182 -186 -200 -204 0
-182 -186 -212 -216 0
-182 -186 -224 -228 0
-182 -186 -236 -240 0
-183 -184 -195 -196 0
-183 -184 -207 -208 0
-183 -184 -219 -220 0
-183 -184 -231 -232 0
-183 -184 -201 -202 0
-183 -184 -213 -214 0
-183 -184 -225 -226 0
-183 -184 -237 -238 0
-183 -185 -195 -197 0
-183 -185 -207 -209 0
-183 -185 -219 -221 0
-183 -185 -231 -233 0
-183 -185 -201 -203 0
-183 -185 -213 -215 0
-183 -185 -225 -227 0
-183 -185 -237 -239 0
-183 -186 -195 -198 0
-183 -186 -207 -210 0
-183 -186 -219 -222 0
-183 -186 -231 -234 0
-183 -186 -201 -204 0
-183 -186 -213 -216 0
-183 -186 -225 -228 0
-183 -186 -237 -240 0
-184 -185 -196 -197 0
-184 -185 -208 -209 0
-184 -185 -220 -221 0
-184 -185 -232 -233 0
-184 -185 -202 -203 0
-184 -185 -214 -215 0
-184 -185 -226 -227 0
-184 -185 -238 -239 0
-184 -186 -196 -198 0
-184 -186 -208 -210 0
-184 -186 -220 -222 0
-184 -186 -232 -234 0
-184 -186 -202 -204 0
-184 -186 -214 -216 0
-184 -186 -226 -228 0
-184 -186 -238 -240 0
-185 -186 -197 -198 0
-185 -186 -209 -210 0
-185 -186 -221 -222 0
-185 -186 -233 -234 0
-185 -186 -203 -204 0
-185 -186 -215 -216 0
-185 -186 -227 -228 0
-185 -186 -239 -240 0
-187 -188 -193 -194 0
-187 -188 -205 -206 0
-187 -188 -217 -218 0
-187 -188 -229 -230 0
-187 -188 -199 -200 0
-187 -188 -211 -212 0
-187 -188 -223 -224 0
-187 -188 -235 -236 0
-187 -189 -193 -195 0
-187 -189 -205 -207 0
-187 -189 -217 -219 0
-187 -189 -229 -231 0
-187 -189 -199 -201 0
-187 -189 -211 -213 0
-187 -189 -223 -225 0
-187 -189 -235 -237 0
-187 -190 -193 -196 0
-187 -190 -205 -208 0
-187 -190 -217 -220 0
-187 -190 -229 -232 0
-187 -190 -199 -202 0
-187 -190 -211 -214 0
-187 -190 -223 -226 0
-187 -190 -235 -238 0
-187 -191 -193 -197 0
-187 -191 -205 -209 0
-187 -191 -217 -221 0
-187 -191 -229 -233 0
-187 -191 -199 -203 0
-187 -191 -211 -215 0
-187 -191 -223 -227 0
-187 -191 -235 -239 0
-187 -192 -193 -198 0
-187 -192 -205 -210 0
-187 -192 -217 -222 0
-187 -192 -229 -234 0
-187 -192 -199 -204 0
-187 -192 -211 -216 0
-187 -192 -223 -228 0
-187 -192 -235 -240 0
-188 -189 -194 -195 0
-188 -189 -206 -207 0
-188 -189 -218 -219 0
-188 -189 -230 -231 0
-188 -189 -200 -201 0
-188 -189 -212 -213 0
-188 -189 -224 -225 0
-188 -189 -236 -237 0
-188 -190 -194 -196 0
-188 -190 -206 -208 0
-188 -190 -218 -220 0
-188 -190 -230 -232 0
-188 -190 -200 -202 0
-188 -190 -212 -214 0
-188 -190 -224 -226 0
-188 -190 -236 -238 0
-188 -191 -194 -197 0
-188 -191 -206 -209 0
-188 -191 -218 -221 0
-188 -191 -230 -233 0
-188 -191 -200 -203 0
-188 -191 -212 -215 0
-188 -191 -224 -227 0
-188 -191 -236 -239 0
-188 -192 -194 -198 0
-188 -192 -206 -210 0
-188 -192 -218 -222 0
-188 -192 -230 -234 0
-188 -192 -200 -204 0
-188 -192 -212 -216 0
-188 -192 -224 -228 0
-188 -192 -236 -240 0
-189 -190 -195 -196 0
-189 -190 -207 -208 0
-189 -190 -219 -220 0
-189 -190 -231 -232 0
-189 -190 -201 -202 0
-189 -190 -213 -214 0
-189 -190 -225 -226 0
-189 -190 -237 -238 0
-189 -191 -195 -197 0
-189 -191 -207 -209 0
-189 -191 -219 -221 0
-189 -191 -231 -233 0
-189 -191 -201 -203 0
-189 -191 -213 -215 0
-189 -191 -225 -227 0
-189 -191 -237 -239 0
-189 -192 -195 -198 0
-189 -192 -207 -210 0
-189 -192 -219 -222 0
-189 -192 -231 -234 0
-189 -192 -201 -204 0
-189 -192 -213 -216 0
-189 -192 -225 -228 0
-189 -192 -237 -240 0
-190 -191 -196 -197 0
-190 -191 -208 -209 0
-190 -191 -220 -221 0
-190 -191 -232 -233 0
-190 -191 -202 -203 0
-190 -191 -214 -215 0
-190 -191 -226 -227 0
-190 -191 -238 -239 0
-190 -192 -196 -198 0
-190 -192 -208 -210 0
-190 -192 -220 -222 0
-190 -192 -232 -234 0
-190 -192 -202 -204 0
-190 -192 -214 -216 0
-190 -192 -226 -228 0
-190 -192 -238 -240 0
-191 -192 -197 -198 0
-191 -192 -209 -210 0
-191 -192 -221 -222 0
-191 -192 -233 -234 0
-191 -192 -203 -204 0
-191 -192 -215 -216 0
-191 -192 -227 -228 0
-191 -192 -239 -240 0
-193 -194 -205 -206 0
-193 -194 -217 -218 0
-193 -194 -229 -230 0
-193 -194 -211 -212 0
-193 -194 -223 -224 0
-193 -194 -235 -236 0
-193 -195 -205 -207 0
-193 -195 -217 -219 0
-193 -195 -229 -231 0
-193 -195 -211 -213 0
-193 -195 -223 -225 0
-193 -195 -235 -237 0
-193 -196 -205 -208 0
-193 -196 -217 -220 0
-193 -196 -229 -232 0
-193 -196 -211 -214 0
-193 -196 -223 -226 0
-193 -196 -235 -238 0
-193 -197 -205 -209 0
-193 -197 -217 -221 0
-193 -197 -229 -233 0
-193 -197 -211 -215 0
-193 -197 -223 -227 0
-193 -197 -235 -239 0
-193 -198 -205 -210 0
-193 -198 -217 -222 0
-193 -198 -229 -234 0
-193 -198 -211 -216 0
-193 -198 -223 -228 0
-193 -198 -235 -240 0
-194 -195 -206 -207 0
-194 -195 -218 -219 0
-194 -195 -230 -231 0
-194 -195 -212 -213 0
-194 -195 -224 -225 0
-194 -195 -236 -237 0
-194 -196 -206 -208 0
-194 -196 -218 -220 0
-194 -196 -230 -232 0
-194 -196 -212 -214 0
-194 -196 -224 -226 0
-194 -196 -236 -238 0
-194 -197 -206 -209 0
-194 -197 -218 -221 0
-194 -197 -230 -233 0
-194 -197 -212 -215 0
-194 -197 -224 -227 0
-194 -197 -236 -239 0
-194 -198 -206 -210 0
-194 -198 -218 -222 0
-194 -198 -230 -234 0
-194 -198 -212 -216 0
-194 -198 -224 -228 0
-194 -198 -236 -240 0
-195 -196 -207 -208 0
-195 -196 -219 -220 0
-195 -196 -231 -232 0
-195 -196 -213 -214 0
-195 -196 -225 -226 0
-195 -196 -237 -238 0
-195 -197 -207 -209 0
-195 -197 -219 -221 0
-195 -197 -231 -233 0
-195 -197 -213 -215 0
-195 -197 -225 -227 0
-195 -197 -237 -239 0
-195 -198 -207 -210 0
-195 -198 -219 -222 0
-195 -198 -231 -234 0
-195 -198 -213 -216 0
-195 -198 -225 -228 0
-195 -198 -237 -240 0
-196 -197 -208 -209 0
-196 -197 -220 -221 0
-196 -197 -232 -233 0
-196 -197 -214 -215 0
-196 -197 -226 -227 0
-196 -197 -238 -239 0
-196 -198 -208 -210 0
-196 -198 -220 -222 0
-196 -198 -232 -234 0
-196 -198 -214 -216 0
-196 -198 -226 -228 0
-196 -198 -238 -240 0
-197 -198 -209 -210 0
-197 -198 -221 -222 0
-197 -198 -233 -234 0
-197 -198 -215 -216 0
-197 -198 -227 -228 0
-197 -198 -239 -240 0
-199 -200 -205 -206 0
-199 -200 -217 -218 0
-199 -200 -229 -230 0
-199 -200 -211 -212 0
-199 -200 -223 -224 0
-199 -200 -235 -236 0
-199 -201 -205 -207 0
-199 -201 -217 -219 0
-199 -201 -229 -231 0
-199 -201 -211 -213 0
-199 -201 -223 -225 0
-199 -201 -235 -237 0
-199 -202 -205 -208 0
-199 -202 -217 -220 0
-199 -202 -229 -232 0
-199 -202 -211 -214 0
-199 -202 -223 -226 0
-199 -202 -235 -238 0
-199 -203 -205 -209 0
-199 -203 -217 -221 0
-199 -203 -229 -233 0
-199 -203 -211 -215 0
-199 -203 -223 -227 0
-199 -203 -235 -239 0
-199 -204 -205 -210 0
-199 -204 -217 -222 0
-199 -204 -229 -234 0
-199 -204 -211 -216 0
-199 -204 -223 -228 0
-199 -204 -235 -240 0
-200 -201 -206 -207 0
-200 -201 -218 -219 0
-200 -201 -230 -231 0
-200 -201 -212 -213 0
-200 -201 -224 -225 0
-200 -201 -236 -237 0
-200 -202 -206 -208 0
-200 -202 -218 -220 0
-200 -202 -230 -232 0
-200 -202 -212 -214 0
-200 -202 -224 -226 0
-200 -202 -236 -238 0
-200 -203 -206 -209 0
-200 -203 -218 -221 0
-200 -203 -230 -233 0
-200 -203 -212 -215 0
-200 -203 -224 -227 0
-200 -203 -236 -239 0
-200 -204 -206 -210 0
-200 -204 -218 -222 0
-200 -204 -230 -234 0
-200 -204 -212 -216 0
-200 -204 -224 -228 0
-200 -204 -236 -240 0
-201 -202 -207 -208 0
-201 -202 -219 -220 0
-201 -202 -231 -232 0
-201 -202 -213 -214 0
-201 -202 -225 -226 0
-201 -202 -237 -238 0
-201 -203 -207 -209 0
-201 -203 -219 -221 0
-201 -203 -231 -233 0
-201 -203 -213 -215 0
-201 -203 -225 -227 0
-201 -203 -237 -239 0
-201 -204 -207 -210 0
-201 -204 -219 -222 0
-201 -204 -231 -234 0
-201 -204 -213 -216 0
-201 -204 -225 -228 0
-201 -204 -237 -240 0
-202 -203 -208 -209 0
-202 -203 -220 -221 0
-202 -203 -232 -233 0
-202 -203 -214 -215 0
-202 -203 -226 -227 0
-202 -203 -238 -239 0
-202 -204 -208 -210 0
-202 -204 -220 -222 0
-202 -204 -232 -234 0
-202 -204 -214 -216 0
-202 -204 -226 -228 0
-202 -204 -238 -240 0
-203 -204 -209 -210 0
-203 -204 -221 -222 0
-203 -204 -233 -234 0
-203 -204 -215 -216 0
-203 -204 -227 -228 0
-203 -204 -239 -240 0
-205 -206 -217 -218 0
-205 -206 -229 -230 0
-205 -206 -223 -224 0
-205 -206 -235 -236 0
-205 -207 -217 -219 0
-205 -207 -229 -231 0
-205 -207 -223 -225 0
-205 -207 -235 -237 0
-205 -208 -217 -220 0
-205 -208 -229 -232 0
-205 -208 -223 -226 0
-205 -208 -235 -238 0
-205 -209 -217 -221 0
-205 -209 -229 -233 0
-205 -209 -223 -227 0
-205 -209 -235 -239 0
-205 -210 -217 -222 0
-205 -210 -229 -234 0
-205 -210 -223 -228 0
-205 -210 -235 -240 0
-206 -207 -218 -219 0
-206 -207 -230 -231 0
-206 -207 -224 -225 0
-206 -207 -236 -237 0
-206 -208 -218 -220 0
-206 -208 -230 -232 0
-206 -208 -224 -226 0
-206 -208 -236 -238 0
-206 -209 -218 -221 0
-206 -209 -230 -233 0
-206 -209 -224 -227 0
-206 -209 -236 -239 0
-206 -210 -218 -222 0
-206 -210 -230 -234 0
-206 -210 -224 -228 0
-206 -210 -236 -240 0
-207 -208 -219 -220 0
-207 -208 -231 -232 0
-207 -208 -225 -226 0
-207 -208 -237 -238 0
-207 -209 -219 -221 0
-207 -209 -231 -233 0
-207 -209 -225 -227 0
-207 -209 -237 -239 0
-207 -210 -219 -222 0
-207 -210 -231 -234 0
-207 -210 -225 -228 0
-207 -210 -237 -240 0
-208 -209 -220 -221 0
-208 -209 -232 -233 0
-208 -209 -226 -227 0
-208 -209 -238 -239 0
-208 -210 -220 -222 0
-208 -210 -232 -234 0
-208 -210 -226 -228 0
-208 -210 -238 -240 0
-209 -210 -221 -222 0
-209 -210 -233 -234 0
-209 -210 -227 -228 0
-209 -210 -239 -240 0
-211 -212 -217 -218 0
-211 -212 -229 -230 0
-211 -212 -223 -224 0
-211 -212 -235 -236 0
-211 -213 -217 -219 0
-211 -213 -229 -231 0
-211 -213 -223 -225 0
-211 -213 -235 -237 0
-211 -214 -217 -220 0
-211 -214 -229 -232 0
-211 -214 -223 -226 0
-211 -214 -235 -238 0
-211 -215 -217 -221 0
-211 -215 -229 -233 0
-211 -215 -223 -227 0
-211 -215 -235 -239 0
-211 -216 -217 -222 0
-211 -216 -229 -234 0
-211 -216 -223 -228 0
-211 -216 -235 -240 0
-212 -213 -218 -219 0
-212 -213 -230 -231 0
-212 -213 -224 -225 0
-212 -213 -236 -237 0
-212 -214 -218 -220 0
-212 -214 -230 -232 0
-212 -214 -224 -226 0
-212 -214 -236 -238 0
-212 -215 -218 -221 0
-212 -215 -230 -233 0
-212 -215 -224 -227 0
-212 -215 -236 -239 0
-212 -216 -218 -222 0
-212 -216 -230 -234 0
-212 -216 -224 -228 0
-212 -216 -236 -240 0
-213 -214 -219 -220 0
-213 -214 -231 -232 0
-213 -214 -225 -226 0
-213 -214 -237 -238 0
-213 -215 -219 -221 0
-213 -215 -231 -233 0
-213 -215 -225 -227 0
-213 -215 -237 -239 0
-213 -216 -219 -222 0
-213 -216 -231 -234 0
-213 -216 -225 -228 0
-213 -216 -237 -240 0
-214 -215 -220 -221 0
-214 -215 -232 -233 0
-214 -215 -226 -227 0
-214 -215 -238 -239 0
-214 -216 -220 -222 0
-214 -216 -232 -234 0
-214 -216 -226 -228 0
-214 -216 -238 -240 0
-215 -216 -221 -222 0
-215 -216 -233 -234 0
-215 -216 -227 -228 0
-215 -216 -239 -240 0
-217 -218 -229 -230 0
-217 -218 -235 -236 0
-217 -219 -229 -231 0
-217 -219 -235 -237 0
-217 -220 -229 -232 0
-217 -220 -235 -238 0
-217 -221 -229 -233 0
-217 -221 -235 -239 0
-217 -222 -229 -234 0
-217 -222 -235 -240 0
-218 -219 -230 -231 0
-218 -219 -236 -237 0
-218 -220 -230 -232 0
-218 -220 -236 -238 0
-218 -221 -230 -233 0
-218 -221 -236 -239 0
-218 -222 -230 -234 0
-218 -222 -236 -240 0
-219 -220 -231 -232 0
-219 -220 -237 -238 0
-219 -221 -231 -233 0
-219 -221 -237 -239 0
-219 -222 -231 -234 0
-219 -222 -237 -240 0
-220 -221 -232 -233 0
-220 -221 -238 -239 0
-220 -222 -232 -234 0
-220 -222 -238 -240 0
-221 -222 -233 -234 0
-221 -222 -239 -240 0
-223 -224 -229 -230 0
-223 -224 -235 -236 0
-223 -225 -229 -231 0
-223 -225 -235 -237 0
-223 -226 -229 -232 0
-223 -226 -235 -238 0
-223 -227 -229 -233 0
-223 -227 -235 -239 0
-223 -228 -229 -234 0
-223 -228 -235 -240 0
-224 -225 -230 -231 0
-224 -225 -236 -237 0
-224 -226 -230 -232 0
-224 -226 -236 -238 0
-224 -227 -230 -233 0
-224 -227 -236 -239 0
-224 -228 -230 -234 0
-224 -228 -236 -240 0
-225 -226 -231 -232 0
-225 -226 -237 -238 0
-225 -227 -231 -233 0
-225 -227 -237 -239 0
-225 -228 -231 -234 0
-225 -228 -237 -240 0
-226 -227 -232 -233 0
-226 -227 -238 -239 0
-226 -228 -232 -234 0
-226 -228 -238 -240 0
-227 -228 -233 -234 0
-227 -228 -239 -240 0
-1 -7 0
-37 -43 0
-73 -79 0
-109 -115 0
-145 -151 0
-19 -25 0
-55 -61 0
-91 -97 0
-127 -133 0
-163 -169 0
-7 -13 0
-43 -49 0
-79 -85 0
-115 -121 0
-151 -157 0
-25 -31 0
-61 -67 0
-97 -103 0
-133 -139 0
-169 -175 0
-2 -7 0
-2 -8 0
-38 -43 0
-38 -44 0
-74 -79 0
-74 -80 0
-110 -115 0
-110 -116 0
-146 -151 0
-146 -152 0
-20 -25 0
-20 -26 0
-56 -61 0
-56 -62 0
-92 -97 0
-92 -98 0
-128 -133 0
-128 -134 0
-164 -169 0
-164 -170 0
-8 -13 0
-8 -14 0
-44 -49 0
-44 -50 0
-80 -85 0
-80 -86 0
-116 -121 0
-116 -122 0
-152 -157 0
-152 -158 0
-26 -31 0
-26 -32 0
-62 -67 0
-62 -68 0
-98 -103 0
-98 -104 0
-134 -139 0
-134 -140 0
-170 -175 0
-170 -176 0
-3 -7 0
-3 -8 0
-3 -9 0
-39 -43 0
-39 -44 0
-39 -45 0
-75 -79 0
-75 -80 0
-75 -81 0
-111 -115 0
-111 -116 0
-111 -117 0
-147 -151 0
-147 -152 0
-147 -153 0
-21 -25 0
-21 -26 0
-21 -27 0
-57 -61 0
-57 -62 0
-57 -63 0
-93 -97 0
-93 -98 0
-93 -99 0
-129 -133 0
-129 -134 0
-129 -135 0
-165 -169 0
-165 -170 0
-165 -171 0
-9 -13 0
-9 -14 0
-9 -15 0
-45 -49 0
-45 -50 0
-45 -51 0
-81 -85 0
-81 -86 0
-81 -87 0
-117 -121 0
-117 -122 0
-117 -123 0
-153 -157 0
-153 -158 0
-153 -159 0
-27 -31 0
-27 -32 0
-27 -33 0
-63 -67 0
-63 -68 0
-63 -69 0
-99 -103 0
-99 -104 0
-99 -105 0
-135 -139 0
-135 -140 0
-135 -141 0
-171 -175 0
-171 -176 0
-171 -177 0
-4 -7 0
-4 -8 0
-4 -9 0
-4 -10 0
-40 -43 0
-40 -44 0
-40 -45 0
-40 -46 0
-76 -79 0
-76 -80 0
-76 -81 0
-76 -82 0
-112 -115 0
-112 -116 0
-112 -117 0
-112 -118 0
-148 -151 0
-148 -152 0
-148 -153 0
-148 -154 0
-22 -25 0
-22 -26 0
-22 -27 0
-22 -28 0
-58 -61 0
-58 -62 0
-58 -63 0
-58 -64 0
-94 -97 0
-94 -98 0
-94 -99 0
-94 -100 0
-130 -133 0
-130 -134 0
-130 -135 0
-130 -136 0
-166 -169 0
-166 -170 0
-166 -171 0
-166 -172 0
-10 -13 0
-10 -14 0
-10 -15 0
-10 -16 0
-46 -49 0
-46 -50 0
-46 -51 0
-46 -52 0
-82 -85 0
-82 -86 0
-82 -87 0
-82 -88 0
-118 -121 0
-118 -122 0
-118 -123 0
-118 -124 0
-154 -157 0
-154 -158 0
-154 -159 0
-154 -160 0
-28 -31 0
-28 -32 0
-28 -33 0
-28 -34 0
-64 -67 0
-64 -68 0
-64 -69 0
-64 -70 0
-100 -103 0
-100 -104 0
-100 -105 0
-100 -106 0
-136 -139 0
-136 -140 0
-136 -141 0
-136 -142 0
-172 -175 0
-172 -176 0
-172 -177 0
-172 -178 0
-5 -7 0
-5 -8 0
-5 -9 0
-5 -10 0
-5 -11 0
-41 -43 0
-41 -44 0
-41 -45 0
-41 -46 0
-41 -47 0
-77 -79 0
-77 -80 0
-77 -81 0
-77 -82 0
-77 -83 0
-113 -115 0
-113 -116 0
-113 -117 0
-113 -118 0
-113 -119 0
-149 -151 0
-149 -152 0
-149 -153 0
-149 -154 0
-149 -155 0
-23 -25 0
-23 -26 0
-23 -27 0
-23 -28 0
-23 -29 0
-59 -61 0
-59 -62 0
-59 -63 0
-59 -64 0
-59 -65 0
-95 -97 0
-95 -98 0
-95 -99 0
-95 -100 0
-95 -101 0
-131 -133 0
-131 -134 0
-131 -135 0
-131 -136 0
-131 -137 0
-167 -169 0
-167 -170 0
-167 -171 0
-167 -172 0
-167 -173 0
-11 -13 0
-11 -14 0
-11 -15 0
-11 -16 0
-11 -17 0
-47 -49 0
-47 -50 0
-47 -51 0
-47 -52 0
-47 -53 0
-83 -85 0
-83 -86 0
-83 -87 0
-83 -88 0
-83 -89 0
-119 -121 0
-119 -122 0
-119 -123 0
-119 -124 0
-119 -125 0
-155 -157 0
-155 -158 0
-155 -159 0
-155 -160 0
-155 -161 0
-29 -31 0
-29 -32 0
-29 -33 0
-29 -34 0
-29 -35 0
-65 -67 0
-65 -68 0
-65 -69 0
-65 -70 0
-65 -71 0
-101 -103 0
-101 -104 0
-101 -105 0
-101 -106 0
-101 -107 0
-137 -139 0
-137 -140 0
-137 -141 0
-137 -142 0
-137 -143 0
-173 -175 0
-173 -176 0
-173 -177 0
-173 -178 0
-173 -179 0
-6 -7 0
-6 -8 0
-6 -9 0
-6 -10 0
-6 -11 0
-6 -12 0
-42 -43 0
-42 -44 0
-42 -45 0
-42 -46 0
-42 -47 0
-42 -48 0
-78 -79 0
-78 -80 0
-78 -81 0
-78 -82 0
-78 -83 0
-78 -84 0
-114 -115 0
-114 -116 0
-114 -117 0
-114 -118 0
-114 -119 0
-114 -120 0
-150 -151 0
-150 -152 0
-150 -153 0
-150 -154 0
-150 -155 0
-150 -156 0
-24 -25 0
-24 -26 0
-24 -27 0
-24 -28 0
-24 -29 0
-24 -30 0
-60 -61 0
-60 -62 0
-60 -63 0
-60 -64 0
-60 -65 0
-60 -66 0
-96 -97 0
-96 -98 0
-96 -99 0
-96 -100 0
-96 -101 0
-96 -102 0
-132 -133 0
-132 -134 0
-132 -135 0
-132 -136 0
-132 -137 0
-132 -138 0
-168 -169 0
-168 -170 0
-168 -171 0
-168 -172 0
-168 -173 0
-168 -174 0
-12 -13 0
-12 -14 0
-12 -15 0
-12 -16 0
-12 -17 0
-12 -18 0
-48 -49 0
-48 -50 0
-48 -51 0
-48 -52 0
-48 -53 0
-48 -54 0
-84 -85 0
-84 -86 0
-84 -87 0
-84 -88 0
-84 -89 0
-84 -90 0
-120 -121 0
-120 -122 0
-120 -123 0
-120 -124 0
-120 -125 0
-120 -126 0
-156 -157 0
-156 -158 0
-156 -159 0
-156 -160 0
-156 -161 0
-156 -162 0
-30 -31 0
-30 -32 0
-30 -33 0
-30 -34 0
-30 -35 0
-30 -36 0
-66 -67 0
-66 -68 0
-66 -69 0
-66 -70 0
-66 -71 0
-66 -72 0
-102 -103 0
-102 -104 0
-102 -105 0
-102 -106 0
-102 -107 0
-102 -108 0
-138 -139 0
-138 -140 0
-138 -141 0
-138 -142 0
-138 -143 0
-138 -144 0
-174 -175 0
-174 -176 0
-174 -177 0
-174 -178 0
-174 -179 0
-174 -180 0
-2 -19 0
-38 -55 0
-74 -91 0
-110 -127 0
-146 -163 0
-3 -19 0
-3 -20 0
-39 -55 0
-39 -56 0
-75 -91 0
-75 -92 0
-111 -127 0
-111 -128 0
-147 -163 0
-147 -164 0
-4 -19 0
-4 -20 0
-4 -21 0
-40 -55 0
-40 -56 0
-40 -57 0
-76 -91 0
-76 -92 0
-76 -93 0
-112 -127 0
-112 -128 0
-112 -129 0
-148 -163 0
-148 -164 0
-148 -165 0
-5 -19 0
-5 -20 0
-5 -21 0
-5 -22 0
-41 -55 0
-41 -56 0
-41 -57 0
-41 -58 0
-77 -91 0
-77 -92 0
-77 -93 0
-77 -94 0
-113 -127 0
-113 -128 0
-113 -129 0
-113 -130 0
-149 -163 0
-149 -164 0
-149 -165 0
-149 -166 0
-6 -19 0
-6 -20 0
-6 -21 0
-6 -22 0
-6 -23 0
-42 -55 0
-42 -56 0
-42 -57 0
-42 -58 0
-42 -59 0
-78 -91 0
-78 -92 0
-78 -93 0
-78 -94 0
-78 -95 0
-114 -127 0
-114 -128 0
-114 -129 0
-114 -130 0
-114 -131 0
-150 -163 0
-150 -164 0
-150 -165 0
-150 -166 0
-150 -167 0
-7 -43 0
-43 -79 0
-79 -115 0
-115 -151 0
-8 -43 0
-8 -44 0
-44 -79 0
-44 -80 0
-80 -115 0
-80 -116 0
-116 -151 0
-116 -152 0
-9 -43 0
-9 -44 0
-9 -45 0
-45 -79 0
-45 -80 0
-45 -81 0
-81 -115 0
-81 -116 0
-81 -117 0
-117 -151 0
-117 -152 0
-117 -153 0
-10 -43 0
-10 -44 0
-10 -45 0
-10 -46 0
-46 -79 0
-46 -80 0
-46 -81 0
-46 -82 0
-82 -115 0
-82 -116 0
-82 -117 0
-82 -118 0
-118 -151 0
-118 -152 0
-118 -153 0
-118 -154 0
-11 -43 0
-11 -44 0
-11 -45 0
-11 -46 0
-11 -47 0
-47 -79 0
-47 -80 0
-47 -81 0
-47 -82 0
-47 -83 0
-83 -115 0
-83 -116 0
-83 -117 0
-83 -118 0
-83 -119 0
-119 -151 0
-119 -152 0
-119 -153 0
-119 -154 0
-119 -155 0
-12 -43 0
-12 -44 0
-12 -45 0
-12 -46 0
-12 -47 0
-12 -48 0
-48 -79 0
-48 -80 0
-48 -81 0
-48 -82 0
-48 -83 0
-48 -84 0
-84 -115 0
-84 -116 0
-84 -117 0
-84 -118 0
-84 -119 0
-84 -120 0
-120 -151 0
-120 -152 0
-120 -153 0
-120 -154 0
-120 -155 0
-120 -156 0
